c Reduced graph for GEOM120a generated by Cyril Grelier
p edge 98 1137
e 1 3
e 1 4
e 1 5
e 1 7
e 1 8
e 1 9
e 1 10
e 1 12
e 1 13
e 1 16
e 1 21
e 1 22
e 1 25
e 1 27
e 1 29
e 1 33
e 1 35
e 1 38
e 1 39
e 1 45
e 1 52
e 1 62
e 1 68
e 1 70
e 1 75
e 1 76
e 1 78
e 1 79
e 1 84
e 1 89
e 1 91
e 1 93
e 1 97
e 2 3
e 2 4
e 2 5
e 2 6
e 2 8
e 2 14
e 2 15
e 2 16
e 2 17
e 2 18
e 2 27
e 2 28
e 2 30
e 2 34
e 2 36
e 2 40
e 2 44
e 2 46
e 2 48
e 2 49
e 2 50
e 2 51
e 2 56
e 2 57
e 2 63
e 2 69
e 2 71
e 2 72
e 2 73
e 2 74
e 2 83
e 2 85
e 2 90
e 3 4
e 3 5
e 3 6
e 3 7
e 3 8
e 3 9
e 3 10
e 3 12
e 3 13
e 3 14
e 3 15
e 3 16
e 3 17
e 3 20
e 3 21
e 3 22
e 3 25
e 3 27
e 3 33
e 3 34
e 3 35
e 3 38
e 3 39
e 3 43
e 3 47
e 3 51
e 3 53
e 3 60
e 3 68
e 3 74
e 3 79
e 4 5
e 4 6
e 4 7
e 4 8
e 4 9
e 4 10
e 4 12
e 4 13
e 4 14
e 4 16
e 4 17
e 4 20
e 4 21
e 4 22
e 4 25
e 4 27
e 4 29
e 4 33
e 4 34
e 4 35
e 4 36
e 4 38
e 4 39
e 4 45
e 4 50
e 4 51
e 4 68
e 4 74
e 4 79
e 4 98
e 5 6
e 5 7
e 5 8
e 5 9
e 5 10
e 5 12
e 5 13
e 5 14
e 5 15
e 5 16
e 5 17
e 5 20
e 5 21
e 5 22
e 5 25
e 5 27
e 5 29
e 5 33
e 5 34
e 5 35
e 5 36
e 5 39
e 5 50
e 5 51
e 5 68
e 5 74
e 5 79
e 5 98
e 6 8
e 6 14
e 6 15
e 6 16
e 6 17
e 6 18
e 6 20
e 6 27
e 6 28
e 6 30
e 6 34
e 6 36
e 6 40
e 6 44
e 6 46
e 6 48
e 6 49
e 6 50
e 6 51
e 6 56
e 6 57
e 6 65
e 6 67
e 6 71
e 6 72
e 6 73
e 6 74
e 6 83
e 7 8
e 7 9
e 7 10
e 7 12
e 7 13
e 7 16
e 7 20
e 7 21
e 7 22
e 7 25
e 7 29
e 7 33
e 7 35
e 7 38
e 7 39
e 7 43
e 7 45
e 7 47
e 7 52
e 7 53
e 7 60
e 7 62
e 7 70
e 7 75
e 7 76
e 7 78
e 7 84
e 8 9
e 8 10
e 8 12
e 8 13
e 8 14
e 8 15
e 8 16
e 8 17
e 8 20
e 8 21
e 8 22
e 8 27
e 8 33
e 8 34
e 8 35
e 8 39
e 8 43
e 8 47
e 8 50
e 8 51
e 8 53
e 8 68
e 8 74
e 8 79
e 9 10
e 9 12
e 9 13
e 9 16
e 9 21
e 9 22
e 9 25
e 9 29
e 9 33
e 9 38
e 9 45
e 9 52
e 9 62
e 9 68
e 9 70
e 9 75
e 9 76
e 9 78
e 9 79
e 9 84
e 9 89
e 9 91
e 9 93
e 9 97
e 10 12
e 10 13
e 10 16
e 10 21
e 10 22
e 10 25
e 10 29
e 10 33
e 10 38
e 10 45
e 10 52
e 10 62
e 10 68
e 10 70
e 10 75
e 10 76
e 10 78
e 10 79
e 10 84
e 10 89
e 10 91
e 10 93
e 10 97
e 11 15
e 11 19
e 11 23
e 11 24
e 11 26
e 11 31
e 11 32
e 11 37
e 11 41
e 11 42
e 11 49
e 11 54
e 11 55
e 11 56
e 11 58
e 11 59
e 11 61
e 11 64
e 11 66
e 11 67
e 11 77
e 11 80
e 11 81
e 11 82
e 11 86
e 11 87
e 11 88
e 11 92
e 11 95
e 12 13
e 12 20
e 12 21
e 12 22
e 12 25
e 12 29
e 12 33
e 12 35
e 12 38
e 12 39
e 12 43
e 12 45
e 12 47
e 12 52
e 12 53
e 12 60
e 12 62
e 12 70
e 12 75
e 12 76
e 12 78
e 13 16
e 13 20
e 13 21
e 13 22
e 13 25
e 13 27
e 13 29
e 13 33
e 13 34
e 13 35
e 13 38
e 13 39
e 13 43
e 13 45
e 13 51
e 13 52
e 13 62
e 13 68
e 13 75
e 13 79
e 14 16
e 14 17
e 14 18
e 14 27
e 14 28
e 14 30
e 14 34
e 14 36
e 14 40
e 14 44
e 14 46
e 14 48
e 14 50
e 14 51
e 14 63
e 14 68
e 14 69
e 14 71
e 14 72
e 14 74
e 14 85
e 14 90
e 14 98
e 15 16
e 15 19
e 15 20
e 15 22
e 15 23
e 15 24
e 15 26
e 15 27
e 15 31
e 15 32
e 15 35
e 15 37
e 15 39
e 15 40
e 15 43
e 15 47
e 15 49
e 15 53
e 15 56
e 15 57
e 15 60
e 15 67
e 15 80
e 16 17
e 16 18
e 16 20
e 16 22
e 16 27
e 16 34
e 16 35
e 16 36
e 16 39
e 16 44
e 16 50
e 16 51
e 16 68
e 16 74
e 16 79
e 16 98
e 17 18
e 17 27
e 17 28
e 17 30
e 17 34
e 17 36
e 17 40
e 17 44
e 17 46
e 17 48
e 17 50
e 17 51
e 17 63
e 17 68
e 17 69
e 17 71
e 17 72
e 17 74
e 17 85
e 17 90
e 17 98
e 18 27
e 18 28
e 18 30
e 18 34
e 18 36
e 18 40
e 18 44
e 18 46
e 18 48
e 18 49
e 18 50
e 18 51
e 18 56
e 18 57
e 18 63
e 18 65
e 18 69
e 18 71
e 18 72
e 18 73
e 18 83
e 18 85
e 18 90
e 19 20
e 19 23
e 19 24
e 19 26
e 19 31
e 19 32
e 19 37
e 19 41
e 19 42
e 19 49
e 19 54
e 19 55
e 19 56
e 19 57
e 19 58
e 19 59
e 19 61
e 19 64
e 19 65
e 19 66
e 19 67
e 19 80
e 19 81
e 19 82
e 19 86
e 19 95
e 20 21
e 20 22
e 20 23
e 20 26
e 20 31
e 20 33
e 20 35
e 20 37
e 20 39
e 20 43
e 20 47
e 20 49
e 20 53
e 20 60
e 20 77
e 20 94
e 20 96
e 21 22
e 21 25
e 21 29
e 21 33
e 21 35
e 21 38
e 21 39
e 21 43
e 21 45
e 21 47
e 21 52
e 21 53
e 21 60
e 21 70
e 21 94
e 21 96
e 22 25
e 22 27
e 22 29
e 22 33
e 22 34
e 22 35
e 22 38
e 22 39
e 22 43
e 22 45
e 22 47
e 22 53
e 22 60
e 23 24
e 23 26
e 23 31
e 23 32
e 23 37
e 23 41
e 23 42
e 23 43
e 23 47
e 23 53
e 23 54
e 23 55
e 23 59
e 23 60
e 23 64
e 23 66
e 23 77
e 23 81
e 23 87
e 23 88
e 23 92
e 23 94
e 23 96
e 24 26
e 24 31
e 24 32
e 24 37
e 24 41
e 24 42
e 24 49
e 24 54
e 24 55
e 24 56
e 24 58
e 24 59
e 24 61
e 24 64
e 24 65
e 24 66
e 24 67
e 24 80
e 24 81
e 24 82
e 24 86
e 24 87
e 24 95
e 25 29
e 25 33
e 25 38
e 25 39
e 25 45
e 25 52
e 25 62
e 25 70
e 25 75
e 25 76
e 25 78
e 25 84
e 25 89
e 25 91
e 25 93
e 25 97
e 26 31
e 26 32
e 26 35
e 26 37
e 26 39
e 26 41
e 26 42
e 26 43
e 26 47
e 26 53
e 26 54
e 26 55
e 26 59
e 26 60
e 26 66
e 26 77
e 26 87
e 26 88
e 26 92
e 26 94
e 26 96
e 27 28
e 27 30
e 27 34
e 27 35
e 27 36
e 27 40
e 27 44
e 27 50
e 27 51
e 27 68
e 27 74
e 27 79
e 27 98
e 28 30
e 28 34
e 28 36
e 28 40
e 28 44
e 28 46
e 28 48
e 28 49
e 28 50
e 28 56
e 28 57
e 28 63
e 28 65
e 28 69
e 28 71
e 28 72
e 28 73
e 28 83
e 28 85
e 28 90
e 29 38
e 29 45
e 29 52
e 29 62
e 29 68
e 29 70
e 29 75
e 29 76
e 29 78
e 29 79
e 29 84
e 29 89
e 29 91
e 29 93
e 29 97
e 30 34
e 30 36
e 30 40
e 30 44
e 30 46
e 30 48
e 30 49
e 30 50
e 30 56
e 30 57
e 30 63
e 30 65
e 30 69
e 30 71
e 30 72
e 30 73
e 30 83
e 30 85
e 30 90
e 31 37
e 31 41
e 31 42
e 31 43
e 31 47
e 31 53
e 31 54
e 31 55
e 31 59
e 31 60
e 31 64
e 31 66
e 31 77
e 31 81
e 31 87
e 31 88
e 31 92
e 31 94
e 31 96
e 32 40
e 32 41
e 32 42
e 32 49
e 32 54
e 32 55
e 32 56
e 32 57
e 32 58
e 32 59
e 32 61
e 32 64
e 32 65
e 32 66
e 32 67
e 32 80
e 32 81
e 32 82
e 32 86
e 32 95
e 33 35
e 33 38
e 33 39
e 33 43
e 33 45
e 33 47
e 33 52
e 33 53
e 33 60
e 33 70
e 33 94
e 33 96
e 34 36
e 34 44
e 34 50
e 34 51
e 34 63
e 34 68
e 34 69
e 34 74
e 34 79
e 34 98
e 35 37
e 35 38
e 35 39
e 35 43
e 35 47
e 35 53
e 35 60
e 35 94
e 35 96
e 36 44
e 36 50
e 36 51
e 36 63
e 36 68
e 36 69
e 36 71
e 36 72
e 36 74
e 36 79
e 36 85
e 36 90
e 36 98
e 37 39
e 37 41
e 37 42
e 37 43
e 37 47
e 37 53
e 37 54
e 37 55
e 37 59
e 37 60
e 37 77
e 37 87
e 37 88
e 37 92
e 37 94
e 37 96
e 38 39
e 38 43
e 38 45
e 38 47
e 38 52
e 38 62
e 38 70
e 38 75
e 38 76
e 38 78
e 38 84
e 39 43
e 39 47
e 39 53
e 39 60
e 39 94
e 39 96
e 40 44
e 40 46
e 40 48
e 40 49
e 40 56
e 40 57
e 40 58
e 40 65
e 40 67
e 40 71
e 40 72
e 40 73
e 40 80
e 40 83
e 41 42
e 41 54
e 41 55
e 41 58
e 41 59
e 41 61
e 41 64
e 41 66
e 41 77
e 41 81
e 41 82
e 41 86
e 41 87
e 41 88
e 41 92
e 41 95
e 42 54
e 42 55
e 42 58
e 42 59
e 42 61
e 42 64
e 42 66
e 42 77
e 42 80
e 42 81
e 42 82
e 42 86
e 42 87
e 42 92
e 42 95
e 43 47
e 43 53
e 43 60
e 43 77
e 43 88
e 43 94
e 43 96
e 44 46
e 44 48
e 44 50
e 44 51
e 44 63
e 44 69
e 44 71
e 44 72
e 44 74
e 44 85
e 44 90
e 44 98
e 45 52
e 45 62
e 45 70
e 45 75
e 45 76
e 45 78
e 45 84
e 45 89
e 45 91
e 45 93
e 45 97
e 46 48
e 46 49
e 46 56
e 46 57
e 46 63
e 46 65
e 46 67
e 46 69
e 46 71
e 46 72
e 46 73
e 46 80
e 46 83
e 46 85
e 46 90
e 47 53
e 47 60
e 47 77
e 47 88
e 47 94
e 47 96
e 48 49
e 48 56
e 48 57
e 48 63
e 48 65
e 48 67
e 48 69
e 48 71
e 48 72
e 48 73
e 48 83
e 48 85
e 48 90
e 49 56
e 49 57
e 49 58
e 49 61
e 49 65
e 49 67
e 49 73
e 49 80
e 49 83
e 50 51
e 50 63
e 50 68
e 50 69
e 50 74
e 50 79
e 50 85
e 50 98
e 51 63
e 51 68
e 51 69
e 51 74
e 51 79
e 51 98
e 52 62
e 52 70
e 52 75
e 52 76
e 52 78
e 52 84
e 52 89
e 52 91
e 52 93
e 52 97
e 53 60
e 53 77
e 53 88
e 53 94
e 53 96
e 54 55
e 54 59
e 54 61
e 54 64
e 54 66
e 54 77
e 54 81
e 54 82
e 54 87
e 54 88
e 54 92
e 54 95
e 55 58
e 55 59
e 55 61
e 55 64
e 55 66
e 55 81
e 55 82
e 55 86
e 55 87
e 55 92
e 55 95
e 56 57
e 56 58
e 56 61
e 56 65
e 56 67
e 56 73
e 56 80
e 56 83
e 57 58
e 57 61
e 57 65
e 57 67
e 57 71
e 57 72
e 57 73
e 57 80
e 57 83
e 58 61
e 58 64
e 58 65
e 58 67
e 58 73
e 58 80
e 58 82
e 58 83
e 58 86
e 58 95
e 59 64
e 59 66
e 59 77
e 59 81
e 59 82
e 59 87
e 59 88
e 59 92
e 59 95
e 60 77
e 60 88
e 60 94
e 60 96
e 61 64
e 61 65
e 61 66
e 61 67
e 61 80
e 61 81
e 61 82
e 61 86
e 61 95
e 62 70
e 62 75
e 62 76
e 62 78
e 62 84
e 62 89
e 62 91
e 62 93
e 62 97
e 63 69
e 63 71
e 63 72
e 63 74
e 63 85
e 63 90
e 63 98
e 64 66
e 64 81
e 64 82
e 64 86
e 64 87
e 64 92
e 64 95
e 65 67
e 65 73
e 65 80
e 65 83
e 65 86
e 66 81
e 66 82
e 66 86
e 66 87
e 66 92
e 66 95
e 67 73
e 67 80
e 67 82
e 67 83
e 67 86
e 68 74
e 68 79
e 68 98
e 69 71
e 69 72
e 69 74
e 69 85
e 69 90
e 69 98
e 70 75
e 70 76
e 70 78
e 70 84
e 70 89
e 70 91
e 70 97
e 71 72
e 71 73
e 71 83
e 71 85
e 71 90
e 72 73
e 72 83
e 72 85
e 72 90
e 73 80
e 73 83
e 73 85
e 73 90
e 74 79
e 74 98
e 75 76
e 75 78
e 75 84
e 75 89
e 75 91
e 75 93
e 75 97
e 76 78
e 76 84
e 76 89
e 76 91
e 76 93
e 76 97
e 77 87
e 77 88
e 77 92
e 77 94
e 77 96
e 78 84
e 78 89
e 78 91
e 78 93
e 78 97
e 79 93
e 79 98
e 80 82
e 80 83
e 80 86
e 81 82
e 81 86
e 81 87
e 81 92
e 81 95
e 82 86
e 82 95
e 84 89
e 84 91
e 84 93
e 84 97
e 85 90
e 86 95
e 87 88
e 87 92
e 88 92
e 88 94
e 88 96
e 89 91
e 89 93
e 89 97
e 91 93
e 91 97
e 93 97
e 94 96
